p cnf 509 1938
17 -23 25 0
26 21 17 0
-50 -16 -23 0
-36 -18 49 0
-19 -22 -33 0
27 -29 44 0
-6 -11 -4 0
36 -30 8 0
24 -40 -30 0
40 -17 -20 0
-44 -8 -31 0
-35 -20 -32 0
29 -13 49 0
19 -46 -20 0
44 -43 31 0
-39 7 20 0
16 -27 17 0
-30 12 -4 0
-26 -37 11 0
-25 -49 32 0
-19 -50 12 0
-14 22 24 0
40 -17 -27 0
35 -37 11 0
14 17 -40 0
-17 -14 23 0
-3 -12 47 0
-11 36 -14 0
-26 47 -32 0
48 6 42 0
35 -19 32 0
-11 -34 12 0
-47 -29 50 0
40 19 8 0
-21 -40 -47 0
-6 -25 -34 0
-7 25 -28 0
20 -43 2 0
-38 27 -9 0
-19 -24 17 0
-6 -15 43 0
22 -34 -48 0
46 -2 -49 0
-46 6 -2 0
-42 -14 33 0
-50 44 16 0
7 -4 11 0
41 -13 -36 0
-33 -4 -38 0
15 -40 23 0
1 2 51 0
-1 2 -51 0
1 -2 -51 0
-1 -2 51 0
8 -11 52 0
-8 -11 -52 0
8 11 -52 0
-8 11 52 0
-12 14 53 0
12 14 -53 0
-12 -14 -53 0
12 -14 53 0
18 -21 54 0
-18 -21 -54 0
18 21 -54 0
-18 21 54 0
23 -24 55 0
-23 -24 -55 0
23 24 -55 0
-23 24 55 0
25 -26 56 0
-25 -26 -56 0
25 26 -56 0
-25 26 56 0
-27 31 57 0
27 31 -57 0
-27 -31 -57 0
27 -31 57 0
-33 -34 58 0
33 -34 -58 0
-33 34 -58 0
33 34 58 0
37 38 59 0
-37 38 -59 0
37 -38 -59 0
-37 -38 59 0
-41 -42 60 0
41 -42 -60 0
-41 42 -60 0
41 42 60 0
-43 50 61 0
43 50 -61 0
-43 -50 -61 0
43 -50 61 0
51 -52 62 0
-51 -52 -62 0
51 52 -62 0
-51 52 62 0
53 -54 63 0
-53 -54 -63 0
53 54 -63 0
-53 54 63 0
55 -56 64 0
-55 -56 -64 0
55 56 -64 0
-55 56 64 0
57 -58 65 0
-57 -58 -65 0
57 58 -65 0
-57 58 65 0
59 -60 66 0
-59 -60 -66 0
59 60 -66 0
-59 60 66 0
61 -62 67 0
-61 -62 -67 0
61 62 -67 0
-61 62 67 0
63 -64 68 0
-63 -64 -68 0
63 64 -68 0
-63 64 68 0
65 -66 69 0
-65 -66 -69 0
65 66 -69 0
-65 66 69 0
-67 -68 69 0
67 -68 -69 0
-67 68 -69 0
67 68 69 0
1 -4 70 0
-1 -4 -70 0
1 4 -70 0
-1 4 70 0
5 6 71 0
-5 6 -71 0
5 -6 -71 0
-5 -6 71 0
-7 -8 72 0
7 -8 -72 0
-7 8 -72 0
7 8 72 0
10 -13 73 0
-10 -13 -73 0
10 13 -73 0
-10 13 73 0
-14 -15 74 0
14 -15 -74 0
-14 15 -74 0
14 15 74 0
18 -19 75 0
-18 -19 -75 0
18 19 -75 0
-18 19 75 0
-20 -21 76 0
20 -21 -76 0
-20 21 -76 0
20 21 76 0
-24 -25 77 0
24 -25 -77 0
-24 25 -77 0
24 25 77 0
-26 -27 78 0
26 -27 -78 0
-26 27 -78 0
26 27 78 0
30 -34 79 0
-30 -34 -79 0
30 34 -79 0
-30 34 79 0
-35 36 80 0
35 36 -80 0
-35 -36 -80 0
35 -36 80 0
37 38 81 0
-37 38 -81 0
37 -38 -81 0
-37 -38 81 0
-40 -41 82 0
40 -41 -82 0
-40 41 -82 0
40 41 82 0
-42 -45 83 0
42 -45 -83 0
-42 45 -83 0
42 45 83 0
-47 48 84 0
47 48 -84 0
-47 -48 -84 0
47 -48 84 0
70 -71 85 0
-70 -71 -85 0
70 71 -85 0
-70 71 85 0
72 -73 86 0
-72 -73 -86 0
72 73 -86 0
-72 73 86 0
74 -75 87 0
-74 -75 -87 0
74 75 -87 0
-74 75 87 0
76 -77 88 0
-76 -77 -88 0
76 77 -88 0
-76 77 88 0
78 -79 89 0
-78 -79 -89 0
78 79 -89 0
-78 79 89 0
80 -81 90 0
-80 -81 -90 0
80 81 -90 0
-80 81 90 0
82 -83 91 0
-82 -83 -91 0
82 83 -91 0
-82 83 91 0
84 -85 92 0
-84 -85 -92 0
84 85 -92 0
-84 85 92 0
86 -87 93 0
-86 -87 -93 0
86 87 -93 0
-86 87 93 0
88 -89 94 0
-88 -89 -94 0
88 89 -94 0
-88 89 94 0
90 -91 95 0
-90 -91 -95 0
90 91 -95 0
-90 91 95 0
92 -93 96 0
-92 -93 -96 0
92 93 -96 0
-92 93 96 0
94 -95 97 0
-94 -95 -97 0
94 95 -97 0
-94 95 97 0
96 97 0
-96 -97 0
2 4 98 0
-2 4 -98 0
2 -4 -98 0
-2 -4 98 0
5 8 99 0
-5 8 -99 0
5 -8 -99 0
-5 -8 99 0
-9 -12 100 0
9 -12 -100 0
-9 12 -100 0
9 12 100 0
14 15 101 0
-14 15 -101 0
14 -15 -101 0
-14 -15 101 0
-17 -20 102 0
17 -20 -102 0
-17 20 -102 0
17 20 102 0
-22 24 103 0
22 24 -103 0
-22 -24 -103 0
22 -24 103 0
-25 -27 104 0
25 -27 -104 0
-25 27 -104 0
25 27 104 0
-28 29 105 0
28 29 -105 0
-28 -29 -105 0
28 -29 105 0
-30 -33 106 0
30 -33 -106 0
-30 33 -106 0
30 33 106 0
36 -39 107 0
-36 -39 -107 0
36 39 -107 0
-36 39 107 0
40 -42 108 0
-40 -42 -108 0
40 42 -108 0
-40 42 108 0
45 46 109 0
-45 46 -109 0
45 -46 -109 0
-45 -46 109 0
48 -49 110 0
-48 -49 -110 0
48 49 -110 0
-48 49 110 0
97 -98 111 0
-97 -98 -111 0
97 98 -111 0
-97 98 111 0
99 -100 112 0
-99 -100 -112 0
99 100 -112 0
-99 100 112 0
101 -102 113 0
-101 -102 -113 0
101 102 -113 0
-101 102 113 0
103 -104 114 0
-103 -104 -114 0
103 104 -114 0
-103 104 114 0
105 -106 115 0
-105 -106 -115 0
105 106 -115 0
-105 106 115 0
107 -108 116 0
-107 -108 -116 0
107 108 -116 0
-107 108 116 0
109 -110 117 0
-109 -110 -117 0
109 110 -117 0
-109 110 117 0
111 -112 118 0
-111 -112 -118 0
111 112 -118 0
-111 112 118 0
113 -114 119 0
-113 -114 -119 0
113 114 -119 0
-113 114 119 0
115 -116 120 0
-115 -116 -120 0
115 116 -120 0
-115 116 120 0
117 -118 121 0
-117 -118 -121 0
117 118 -121 0
-117 118 121 0
119 -120 122 0
-119 -120 -122 0
119 120 -122 0
-119 120 122 0
121 122 0
-121 -122 0
1 2 123 0
-1 2 -123 0
1 -2 -123 0
-1 -2 123 0
-5 -7 124 0
5 -7 -124 0
-5 7 -124 0
5 7 124 0
8 -9 125 0
-8 -9 -125 0
8 9 -125 0
-8 9 125 0
-13 -14 126 0
13 -14 -126 0
-13 14 -126 0
13 14 126 0
-17 20 127 0
17 20 -127 0
-17 -20 -127 0
17 -20 127 0
21 23 128 0
-21 23 -128 0
21 -23 -128 0
-21 -23 128 0
-28 -31 129 0
28 -31 -129 0
-28 31 -129 0
28 31 129 0
-33 -34 130 0
33 -34 -130 0
-33 34 -130 0
33 34 130 0
-35 -39 131 0
35 -39 -131 0
-35 39 -131 0
35 39 131 0
42 -45 132 0
-42 -45 -132 0
42 45 -132 0
-42 45 132 0
-46 -47 133 0
46 -47 -133 0
-46 47 -133 0
46 47 133 0
48 -49 134 0
-48 -49 -134 0
48 49 -134 0
-48 49 134 0
122 -123 135 0
-122 -123 -135 0
122 123 -135 0
-122 123 135 0
124 -125 136 0
-124 -125 -136 0
124 125 -136 0
-124 125 136 0
126 -127 137 0
-126 -127 -137 0
126 127 -137 0
-126 127 137 0
128 -129 138 0
-128 -129 -138 0
128 129 -138 0
-128 129 138 0
130 -131 139 0
-130 -131 -139 0
130 131 -139 0
-130 131 139 0
132 -133 140 0
-132 -133 -140 0
132 133 -140 0
-132 133 140 0
134 -135 141 0
-134 -135 -141 0
134 135 -141 0
-134 135 141 0
136 -137 142 0
-136 -137 -142 0
136 137 -142 0
-136 137 142 0
138 -139 143 0
-138 -139 -143 0
138 139 -143 0
-138 139 143 0
140 -141 144 0
-140 -141 -144 0
140 141 -144 0
-140 141 144 0
142 -143 145 0
-142 -143 -145 0
142 143 -145 0
-142 143 145 0
144 145 0
-144 -145 0
1 -3 146 0
-1 -3 -146 0
1 3 -146 0
-1 3 146 0
-4 7 147 0
4 7 -147 0
-4 -7 -147 0
4 -7 147 0
-12 13 148 0
12 13 -148 0
-12 -13 -148 0
12 -13 148 0
-14 15 149 0
14 15 -149 0
-14 -15 -149 0
14 -15 149 0
-17 -18 150 0
17 -18 -150 0
-17 18 -150 0
17 18 150 0
19 -22 151 0
-19 -22 -151 0
19 22 -151 0
-19 22 151 0
-25 -29 152 0
25 -29 -152 0
-25 29 -152 0
25 29 152 0
30 -33 153 0
-30 -33 -153 0
30 33 -153 0
-30 33 153 0
-37 -39 154 0
37 -39 -154 0
-37 39 -154 0
37 39 154 0
-40 41 155 0
40 41 -155 0
-40 -41 -155 0
40 -41 155 0
-42 46 156 0
42 46 -156 0
-42 -46 -156 0
42 -46 156 0
145 -146 157 0
-145 -146 -157 0
145 146 -157 0
-145 146 157 0
147 -148 158 0
-147 -148 -158 0
147 148 -158 0
-147 148 158 0
149 -150 159 0
-149 -150 -159 0
149 150 -159 0
-149 150 159 0
151 -152 160 0
-151 -152 -160 0
151 152 -160 0
-151 152 160 0
153 -154 161 0
-153 -154 -161 0
153 154 -161 0
-153 154 161 0
155 -156 162 0
-155 -156 -162 0
155 156 -162 0
-155 156 162 0
157 -158 163 0
-157 -158 -163 0
157 158 -163 0
-157 158 163 0
159 -160 164 0
-159 -160 -164 0
159 160 -164 0
-159 160 164 0
161 -162 165 0
-161 -162 -165 0
161 162 -165 0
-161 162 165 0
-163 -164 165 0
163 -164 -165 0
-163 164 -165 0
163 164 165 0
3 -5 166 0
-3 -5 -166 0
3 5 -166 0
-3 5 166 0
6 -8 167 0
-6 -8 -167 0
6 8 -167 0
-6 8 167 0
-9 11 168 0
9 11 -168 0
-9 -11 -168 0
9 -11 168 0
-13 -14 169 0
13 -14 -169 0
-13 14 -169 0
13 14 169 0
-16 -17 170 0
16 -17 -170 0
-16 17 -170 0
16 17 170 0
18 22 171 0
-18 22 -171 0
18 -22 -171 0
-18 -22 171 0
-23 -24 172 0
23 -24 -172 0
-23 24 -172 0
23 24 172 0
-25 28 173 0
25 28 -173 0
-25 -28 -173 0
25 -28 173 0
-29 -30 174 0
29 -30 -174 0
-29 30 -174 0
29 30 174 0
-32 34 175 0
32 34 -175 0
-32 -34 -175 0
32 -34 175 0
37 -39 176 0
-37 -39 -176 0
37 39 -176 0
-37 39 176 0
40 42 177 0
-40 42 -177 0
40 -42 -177 0
-40 -42 177 0
165 -166 178 0
-165 -166 -178 0
165 166 -178 0
-165 166 178 0
167 -168 179 0
-167 -168 -179 0
167 168 -179 0
-167 168 179 0
169 -170 180 0
-169 -170 -180 0
169 170 -180 0
-169 170 180 0
171 -172 181 0
-171 -172 -181 0
171 172 -181 0
-171 172 181 0
173 -174 182 0
-173 -174 -182 0
173 174 -182 0
-173 174 182 0
175 -176 183 0
-175 -176 -183 0
175 176 -183 0
-175 176 183 0
177 -178 184 0
-177 -178 -184 0
177 178 -184 0
-177 178 184 0
179 -180 185 0
-179 -180 -185 0
179 180 -185 0
-179 180 185 0
181 -182 186 0
-181 -182 -186 0
181 182 -186 0
-181 182 186 0
183 -184 187 0
-183 -184 -187 0
183 184 -187 0
-183 184 187 0
185 -186 188 0
-185 -186 -188 0
185 186 -188 0
-185 186 188 0
187 188 0
-187 -188 0
-1 4 189 0
1 4 -189 0
-1 -4 -189 0
1 -4 189 0
9 -10 190 0
-9 -10 -190 0
9 10 -190 0
-9 10 190 0
13 -14 191 0
-13 -14 -191 0
13 14 -191 0
-13 14 191 0
18 21 192 0
-18 21 -192 0
18 -21 -192 0
-18 -21 192 0
22 23 193 0
-22 23 -193 0
22 -23 -193 0
-22 -23 193 0
-25 -27 194 0
25 -27 -194 0
-25 27 -194 0
25 27 194 0
29 32 195 0
-29 32 -195 0
29 -32 -195 0
-29 -32 195 0
33 -36 196 0
-33 -36 -196 0
33 36 -196 0
-33 36 196 0
37 -39 197 0
-37 -39 -197 0
37 39 -197 0
-37 39 197 0
41 42 198 0
-41 42 -198 0
41 -42 -198 0
-41 -42 198 0
-45 -48 199 0
45 -48 -199 0
-45 48 -199 0
45 48 199 0
188 -189 200 0
-188 -189 -200 0
188 189 -200 0
-188 189 200 0
190 -191 201 0
-190 -191 -201 0
190 191 -201 0
-190 191 201 0
192 -193 202 0
-192 -193 -202 0
192 193 -202 0
-192 193 202 0
194 -195 203 0
-194 -195 -203 0
194 195 -203 0
-194 195 203 0
196 -197 204 0
-196 -197 -204 0
196 197 -204 0
-196 197 204 0
198 -199 205 0
-198 -199 -205 0
198 199 -205 0
-198 199 205 0
200 -201 206 0
-200 -201 -206 0
200 201 -206 0
-200 201 206 0
202 -203 207 0
-202 -203 -207 0
202 203 -207 0
-202 203 207 0
204 -205 208 0
-204 -205 -208 0
204 205 -208 0
-204 205 208 0
-206 -207 208 0
206 -207 -208 0
-206 207 -208 0
206 207 208 0
3 5 209 0
-3 5 -209 0
3 -5 -209 0
-3 -5 209 0
-6 9 210 0
6 9 -210 0
-6 -9 -210 0
6 -9 210 0
-12 -14 211 0
12 -14 -211 0
-12 14 -211 0
12 14 211 0
15 17 212 0
-15 17 -212 0
15 -17 -212 0
-15 -17 212 0
-18 -19 213 0
18 -19 -213 0
-18 19 -213 0
18 19 213 0
-21 -23 214 0
21 -23 -214 0
-21 23 -214 0
21 23 214 0
24 -25 215 0
-24 -25 -215 0
24 25 -215 0
-24 25 215 0
26 -28 216 0
-26 -28 -216 0
26 28 -216 0
-26 28 216 0
30 -31 217 0
-30 -31 -217 0
30 31 -217 0
-30 31 217 0
35 -37 218 0
-35 -37 -218 0
35 37 -218 0
-35 37 218 0
38 42 219 0
-38 42 -219 0
38 -42 -219 0
-38 -42 219 0
43 -44 220 0
-43 -44 -220 0
43 44 -220 0
-43 44 220 0
46 -49 221 0
-46 -49 -221 0
46 49 -221 0
-46 49 221 0
208 -209 222 0
-208 -209 -222 0
208 209 -222 0
-208 209 222 0
210 -211 223 0
-210 -211 -223 0
210 211 -223 0
-210 211 223 0
212 -213 224 0
-212 -213 -224 0
212 213 -224 0
-212 213 224 0
214 -215 225 0
-214 -215 -225 0
214 215 -225 0
-214 215 225 0
216 -217 226 0
-216 -217 -226 0
216 217 -226 0
-216 217 226 0
218 -219 227 0
-218 -219 -227 0
218 219 -227 0
-218 219 227 0
220 -221 228 0
-220 -221 -228 0
220 221 -228 0
-220 221 228 0
222 -223 229 0
-222 -223 -229 0
222 223 -229 0
-222 223 229 0
224 -225 230 0
-224 -225 -230 0
224 225 -230 0
-224 225 230 0
226 -227 231 0
-226 -227 -231 0
226 227 -231 0
-226 227 231 0
228 -229 232 0
-228 -229 -232 0
228 229 -232 0
-228 229 232 0
230 -231 233 0
-230 -231 -233 0
230 231 -233 0
-230 231 233 0
232 233 0
-232 -233 0
1 2 234 0
-1 2 -234 0
1 -2 -234 0
-1 -2 234 0
-3 5 235 0
3 5 -235 0
-3 -5 -235 0
3 -5 235 0
-7 10 236 0
7 10 -236 0
-7 -10 -236 0
7 -10 236 0
-11 -12 237 0
11 -12 -237 0
-11 12 -237 0
11 12 237 0
-16 -17 238 0
16 -17 -238 0
-16 17 -238 0
16 17 238 0
-24 25 239 0
24 25 -239 0
-24 -25 -239 0
24 -25 239 0
-26 28 240 0
26 28 -240 0
-26 -28 -240 0
26 -28 240 0
-29 30 241 0
29 30 -241 0
-29 -30 -241 0
29 -30 241 0
-31 -36 242 0
31 -36 -242 0
-31 36 -242 0
31 36 242 0
-37 -42 243 0
37 -42 -243 0
-37 42 -243 0
37 42 243 0
-44 -46 244 0
44 -46 -244 0
-44 46 -244 0
44 46 244 0
-47 48 245 0
47 48 -245 0
-47 -48 -245 0
47 -48 245 0
233 -234 246 0
-233 -234 -246 0
233 234 -246 0
-233 234 246 0
235 -236 247 0
-235 -236 -247 0
235 236 -247 0
-235 236 247 0
237 -238 248 0
-237 -238 -248 0
237 238 -248 0
-237 238 248 0
239 -240 249 0
-239 -240 -249 0
239 240 -249 0
-239 240 249 0
241 -242 250 0
-241 -242 -250 0
241 242 -250 0
-241 242 250 0
243 -244 251 0
-243 -244 -251 0
243 244 -251 0
-243 244 251 0
245 -246 252 0
-245 -246 -252 0
245 246 -252 0
-245 246 252 0
247 -248 253 0
-247 -248 -253 0
247 248 -253 0
-247 248 253 0
249 -250 254 0
-249 -250 -254 0
249 250 -254 0
-249 250 254 0
251 -252 255 0
-251 -252 -255 0
251 252 -255 0
-251 252 255 0
253 -254 256 0
-253 -254 -256 0
253 254 -256 0
-253 254 256 0
255 256 0
-255 -256 0
3 4 257 0
-3 4 -257 0
3 -4 -257 0
-3 -4 257 0
-5 -8 258 0
5 -8 -258 0
-5 8 -258 0
5 8 258 0
12 -13 259 0
-12 -13 -259 0
12 13 -259 0
-12 13 259 0
16 17 260 0
-16 17 -260 0
16 -17 -260 0
-16 -17 260 0
-18 -22 261 0
18 -22 -261 0
-18 22 -261 0
18 22 261 0
23 -24 262 0
-23 -24 -262 0
23 24 -262 0
-23 24 262 0
25 26 263 0
-25 26 -263 0
25 -26 -263 0
-25 -26 263 0
-27 -28 264 0
27 -28 -264 0
-27 28 -264 0
27 28 264 0
-29 -31 265 0
29 -31 -265 0
-29 31 -265 0
29 31 265 0
-34 -37 266 0
34 -37 -266 0
-34 37 -266 0
34 37 266 0
38 39 267 0
-38 39 -267 0
38 -39 -267 0
-38 -39 267 0
-42 -43 268 0
42 -43 -268 0
-42 43 -268 0
42 43 268 0
-44 -47 269 0
44 -47 -269 0
-44 47 -269 0
44 47 269 0
256 -257 270 0
-256 -257 -270 0
256 257 -270 0
-256 257 270 0
258 -259 271 0
-258 -259 -271 0
258 259 -271 0
-258 259 271 0
260 -261 272 0
-260 -261 -272 0
260 261 -272 0
-260 261 272 0
262 -263 273 0
-262 -263 -273 0
262 263 -273 0
-262 263 273 0
264 -265 274 0
-264 -265 -274 0
264 265 -274 0
-264 265 274 0
266 -267 275 0
-266 -267 -275 0
266 267 -275 0
-266 267 275 0
268 -269 276 0
-268 -269 -276 0
268 269 -276 0
-268 269 276 0
270 -271 277 0
-270 -271 -277 0
270 271 -277 0
-270 271 277 0
272 -273 278 0
-272 -273 -278 0
272 273 -278 0
-272 273 278 0
274 -275 279 0
-274 -275 -279 0
274 275 -279 0
-274 275 279 0
276 -277 280 0
-276 -277 -280 0
276 277 -280 0
-276 277 280 0
278 -279 281 0
-278 -279 -281 0
278 279 -281 0
-278 279 281 0
280 281 0
-280 -281 0
1 -2 282 0
-1 -2 -282 0
1 2 -282 0
-1 2 282 0
-3 -4 283 0
3 -4 -283 0
-3 4 -283 0
3 4 283 0
5 7 284 0
-5 7 -284 0
5 -7 -284 0
-5 -7 284 0
9 -11 285 0
-9 -11 -285 0
9 11 -285 0
-9 11 285 0
-12 -17 286 0
12 -17 -286 0
-12 17 -286 0
12 17 286 0
18 -19 287 0
-18 -19 -287 0
18 19 -287 0
-18 19 287 0
-22 24 288 0
22 24 -288 0
-22 -24 -288 0
22 -24 288 0
-25 -27 289 0
25 -27 -289 0
-25 27 -289 0
25 27 289 0
29 -30 290 0
-29 -30 -290 0
29 30 -290 0
-29 30 290 0
-33 -34 291 0
33 -34 -291 0
-33 34 -291 0
33 34 291 0
-36 38 292 0
36 38 -292 0
-36 -38 -292 0
36 -38 292 0
39 -43 293 0
-39 -43 -293 0
39 43 -293 0
-39 43 293 0
47 49 294 0
-47 49 -294 0
47 -49 -294 0
-47 -49 294 0
282 -283 295 0
-282 -283 -295 0
282 283 -295 0
-282 283 295 0
284 -285 296 0
-284 -285 -296 0
284 285 -296 0
-284 285 296 0
286 -287 297 0
-286 -287 -297 0
286 287 -297 0
-286 287 297 0
288 -289 298 0
-288 -289 -298 0
288 289 -298 0
-288 289 298 0
290 -291 299 0
-290 -291 -299 0
290 291 -299 0
-290 291 299 0
292 -293 300 0
-292 -293 -300 0
292 293 -300 0
-292 293 300 0
294 -295 301 0
-294 -295 -301 0
294 295 -301 0
-294 295 301 0
296 -297 302 0
-296 -297 -302 0
296 297 -302 0
-296 297 302 0
298 -299 303 0
-298 -299 -303 0
298 299 -303 0
-298 299 303 0
300 -301 304 0
-300 -301 -304 0
300 301 -304 0
-300 301 304 0
302 -303 305 0
-302 -303 -305 0
302 303 -305 0
-302 303 305 0
304 305 0
-304 -305 0
-4 5 306 0
4 5 -306 0
-4 -5 -306 0
4 -5 306 0
7 -8 307 0
-7 -8 -307 0
7 8 -307 0
-7 8 307 0
-11 -15 308 0
11 -15 -308 0
-11 15 -308 0
11 15 308 0
16 17 309 0
-16 17 -309 0
16 -17 -309 0
-16 -17 309 0
18 -19 310 0
-18 -19 -310 0
18 19 -310 0
-18 19 310 0
20 -21 311 0
-20 -21 -311 0
20 21 -311 0
-20 21 311 0
-22 23 312 0
22 23 -312 0
-22 -23 -312 0
22 -23 312 0
-24 26 313 0
24 26 -313 0
-24 -26 -313 0
24 -26 313 0
27 -34 314 0
-27 -34 -314 0
27 34 -314 0
-27 34 314 0
-36 -37 315 0
36 -37 -315 0
-36 37 -315 0
36 37 315 0
38 41 316 0
-38 41 -316 0
38 -41 -316 0
-38 -41 316 0
-42 -43 317 0
42 -43 -317 0
-42 43 -317 0
42 43 317 0
44 47 318 0
-44 47 -318 0
44 -47 -318 0
-44 -47 318 0
305 -306 319 0
-305 -306 -319 0
305 306 -319 0
-305 306 319 0
307 -308 320 0
-307 -308 -320 0
307 308 -320 0
-307 308 320 0
309 -310 321 0
-309 -310 -321 0
309 310 -321 0
-309 310 321 0
311 -312 322 0
-311 -312 -322 0
311 312 -322 0
-311 312 322 0
313 -314 323 0
-313 -314 -323 0
313 314 -323 0
-313 314 323 0
315 -316 324 0
-315 -316 -324 0
315 316 -324 0
-315 316 324 0
317 -318 325 0
-317 -318 -325 0
317 318 -325 0
-317 318 325 0
319 -320 326 0
-319 -320 -326 0
319 320 -326 0
-319 320 326 0
321 -322 327 0
-321 -322 -327 0
321 322 -327 0
-321 322 327 0
323 -324 328 0
-323 -324 -328 0
323 324 -328 0
-323 324 328 0
325 -326 329 0
-325 -326 -329 0
325 326 -329 0
-325 326 329 0
327 -328 330 0
-327 -328 -330 0
327 328 -330 0
-327 328 330 0
329 330 0
-329 -330 0
-9 -13 331 0
9 -13 -331 0
-9 13 -331 0
9 13 331 0
-15 19 332 0
15 19 -332 0
-15 -19 -332 0
15 -19 332 0
-21 23 333 0
21 23 -333 0
-21 -23 -333 0
21 -23 333 0
25 26 334 0
-25 26 -334 0
25 -26 -334 0
-25 -26 334 0
-28 -30 335 0
28 -30 -335 0
-28 30 -335 0
28 30 335 0
31 -33 336 0
-31 -33 -336 0
31 33 -336 0
-31 33 336 0
-34 35 337 0
34 35 -337 0
-34 -35 -337 0
34 -35 337 0
36 43 338 0
-36 43 -338 0
36 -43 -338 0
-36 -43 338 0
-49 -50 339 0
49 -50 -339 0
-49 50 -339 0
49 50 339 0
331 -332 340 0
-331 -332 -340 0
331 332 -340 0
-331 332 340 0
333 -334 341 0
-333 -334 -341 0
333 334 -341 0
-333 334 341 0
335 -336 342 0
-335 -336 -342 0
335 336 -342 0
-335 336 342 0
337 -338 343 0
-337 -338 -343 0
337 338 -343 0
-337 338 343 0
339 -340 344 0
-339 -340 -344 0
339 340 -344 0
-339 340 344 0
341 -342 345 0
-341 -342 -345 0
341 342 -345 0
-341 342 345 0
-343 -344 345 0
343 -344 -345 0
-343 344 -345 0
343 344 345 0
2 6 346 0
-2 6 -346 0
2 -6 -346 0
-2 -6 346 0
7 8 347 0
-7 8 -347 0
7 -8 -347 0
-7 -8 347 0
9 -11 348 0
-9 -11 -348 0
9 11 -348 0
-9 11 348 0
13 18 349 0
-13 18 -349 0
13 -18 -349 0
-13 -18 349 0
-19 20 350 0
19 20 -350 0
-19 -20 -350 0
19 -20 350 0
21 24 351 0
-21 24 -351 0
21 -24 -351 0
-21 -24 351 0
26 27 352 0
-26 27 -352 0
26 -27 -352 0
-26 -27 352 0
28 -29 353 0
-28 -29 -353 0
28 29 -353 0
-28 29 353 0
30 -31 354 0
-30 -31 -354 0
30 31 -354 0
-30 31 354 0
-32 -33 355 0
32 -33 -355 0
-32 33 -355 0
32 33 355 0
34 -35 356 0
-34 -35 -356 0
34 35 -356 0
-34 35 356 0
36 -37 357 0
-36 -37 -357 0
36 37 -357 0
-36 37 357 0
-38 -39 358 0
38 -39 -358 0
-38 39 -358 0
38 39 358 0
41 42 359 0
-41 42 -359 0
41 -42 -359 0
-41 -42 359 0
43 46 360 0
-43 46 -360 0
43 -46 -360 0
-43 -46 360 0
49 50 361 0
-49 50 -361 0
49 -50 -361 0
-49 -50 361 0
346 -347 362 0
-346 -347 -362 0
346 347 -362 0
-346 347 362 0
348 -349 363 0
-348 -349 -363 0
348 349 -363 0
-348 349 363 0
350 -351 364 0
-350 -351 -364 0
350 351 -364 0
-350 351 364 0
352 -353 365 0
-352 -353 -365 0
352 353 -365 0
-352 353 365 0
354 -355 366 0
-354 -355 -366 0
354 355 -366 0
-354 355 366 0
356 -357 367 0
-356 -357 -367 0
356 357 -367 0
-356 357 367 0
358 -359 368 0
-358 -359 -368 0
358 359 -368 0
-358 359 368 0
360 -361 369 0
-360 -361 -369 0
360 361 -369 0
-360 361 369 0
362 -363 370 0
-362 -363 -370 0
362 363 -370 0
-362 363 370 0
364 -365 371 0
-364 -365 -371 0
364 365 -371 0
-364 365 371 0
366 -367 372 0
-366 -367 -372 0
366 367 -372 0
-366 367 372 0
368 -369 373 0
-368 -369 -373 0
368 369 -373 0
-368 369 373 0
370 -371 374 0
-370 -371 -374 0
370 371 -374 0
-370 371 374 0
372 -373 375 0
-372 -373 -375 0
372 373 -375 0
-372 373 375 0
374 375 0
-374 -375 0
-2 -4 376 0
2 -4 -376 0
-2 4 -376 0
2 4 376 0
-5 6 377 0
5 6 -377 0
-5 -6 -377 0
5 -6 377 0
9 10 378 0
-9 10 -378 0
9 -10 -378 0
-9 -10 378 0
-12 -13 379 0
12 -13 -379 0
-12 13 -379 0
12 13 379 0
-15 16 380 0
15 16 -380 0
-15 -16 -380 0
15 -16 380 0
-20 21 381 0
20 21 -381 0
-20 -21 -381 0
20 -21 381 0
-22 26 382 0
22 26 -382 0
-22 -26 -382 0
22 -26 382 0
27 -29 383 0
-27 -29 -383 0
27 29 -383 0
-27 29 383 0
32 33 384 0
-32 33 -384 0
32 -33 -384 0
-32 -33 384 0
-34 35 385 0
34 35 -385 0
-34 -35 -385 0
34 -35 385 0
-37 -38 386 0
37 -38 -386 0
-37 38 -386 0
37 38 386 0
39 -42 387 0
-39 -42 -387 0
39 42 -387 0
-39 42 387 0
43 -46 388 0
-43 -46 -388 0
43 46 -388 0
-43 46 388 0
47 -48 389 0
-47 -48 -389 0
47 48 -389 0
-47 48 389 0
376 -377 390 0
-376 -377 -390 0
376 377 -390 0
-376 377 390 0
378 -379 391 0
-378 -379 -391 0
378 379 -391 0
-378 379 391 0
380 -381 392 0
-380 -381 -392 0
380 381 -392 0
-380 381 392 0
382 -383 393 0
-382 -383 -393 0
382 383 -393 0
-382 383 393 0
384 -385 394 0
-384 -385 -394 0
384 385 -394 0
-384 385 394 0
386 -387 395 0
-386 -387 -395 0
386 387 -395 0
-386 387 395 0
388 -389 396 0
-388 -389 -396 0
388 389 -396 0
-388 389 396 0
390 -391 397 0
-390 -391 -397 0
390 391 -397 0
-390 391 397 0
392 -393 398 0
-392 -393 -398 0
392 393 -398 0
-392 393 398 0
394 -395 399 0
-394 -395 -399 0
394 395 -399 0
-394 395 399 0
396 -397 400 0
-396 -397 -400 0
396 397 -400 0
-396 397 400 0
398 -399 401 0
-398 -399 -401 0
398 399 -401 0
-398 399 401 0
400 401 0
-400 -401 0
3 7 402 0
-3 7 -402 0
3 -7 -402 0
-3 -7 402 0
8 10 403 0
-8 10 -403 0
8 -10 -403 0
-8 -10 403 0
-13 16 404 0
13 16 -404 0
-13 -16 -404 0
13 -16 404 0
-18 -21 405 0
18 -21 -405 0
-18 21 -405 0
18 21 405 0
-23 -26 406 0
23 -26 -406 0
-23 26 -406 0
23 26 406 0
-30 -31 407 0
30 -31 -407 0
-30 31 -407 0
30 31 407 0
-33 -35 408 0
33 -35 -408 0
-33 35 -408 0
33 35 408 0
-37 39 409 0
37 39 -409 0
-37 -39 -409 0
37 -39 409 0
40 41 410 0
-40 41 -410 0
40 -41 -410 0
-40 -41 410 0
-42 43 411 0
42 43 -411 0
-42 -43 -411 0
42 -43 411 0
-44 -45 412 0
44 -45 -412 0
-44 45 -412 0
44 45 412 0
401 -402 413 0
-401 -402 -413 0
401 402 -413 0
-401 402 413 0
403 -404 414 0
-403 -404 -414 0
403 404 -414 0
-403 404 414 0
405 -406 415 0
-405 -406 -415 0
405 406 -415 0
-405 406 415 0
407 -408 416 0
-407 -408 -416 0
407 408 -416 0
-407 408 416 0
409 -410 417 0
-409 -410 -417 0
409 410 -417 0
-409 410 417 0
411 -412 418 0
-411 -412 -418 0
411 412 -418 0
-411 412 418 0
413 -414 419 0
-413 -414 -419 0
413 414 -419 0
-413 414 419 0
415 -416 420 0
-415 -416 -420 0
415 416 -420 0
-415 416 420 0
417 -418 421 0
-417 -418 -421 0
417 418 -421 0
-417 418 421 0
-419 -420 421 0
419 -420 -421 0
-419 420 -421 0
419 420 421 0
2 -4 422 0
-2 -4 -422 0
2 4 -422 0
-2 4 422 0
5 -6 423 0
-5 -6 -423 0
5 6 -423 0
-5 6 423 0
-7 -9 424 0
7 -9 -424 0
-7 9 -424 0
7 9 424 0
-16 17 425 0
16 17 -425 0
-16 -17 -425 0
16 -17 425 0
19 21 426 0
-19 21 -426 0
19 -21 -426 0
-19 -21 426 0
22 23 427 0
-22 23 -427 0
22 -23 -427 0
-22 -23 427 0
-24 -26 428 0
24 -26 -428 0
-24 26 -428 0
24 26 428 0
28 29 429 0
-28 29 -429 0
28 -29 -429 0
-28 -29 429 0
31 -32 430 0
-31 -32 -430 0
31 32 -430 0
-31 32 430 0
33 -37 431 0
-33 -37 -431 0
33 37 -431 0
-33 37 431 0
40 41 432 0
-40 41 -432 0
40 -41 -432 0
-40 -41 432 0
42 -43 433 0
-42 -43 -433 0
42 43 -433 0
-42 43 433 0
-48 49 434 0
48 49 -434 0
-48 -49 -434 0
48 -49 434 0
421 -422 435 0
-421 -422 -435 0
421 422 -435 0
-421 422 435 0
423 -424 436 0
-423 -424 -436 0
423 424 -436 0
-423 424 436 0
425 -426 437 0
-425 -426 -437 0
425 426 -437 0
-425 426 437 0
427 -428 438 0
-427 -428 -438 0
427 428 -438 0
-427 428 438 0
429 -430 439 0
-429 -430 -439 0
429 430 -439 0
-429 430 439 0
431 -432 440 0
-431 -432 -440 0
431 432 -440 0
-431 432 440 0
433 -434 441 0
-433 -434 -441 0
433 434 -441 0
-433 434 441 0
435 -436 442 0
-435 -436 -442 0
435 436 -442 0
-435 436 442 0
437 -438 443 0
-437 -438 -443 0
437 438 -443 0
-437 438 443 0
439 -440 444 0
-439 -440 -444 0
439 440 -444 0
-439 440 444 0
441 -442 445 0
-441 -442 -445 0
441 442 -445 0
-441 442 445 0
443 -444 446 0
-443 -444 -446 0
443 444 -446 0
-443 444 446 0
445 446 0
-445 -446 0
5 -6 447 0
-5 -6 -447 0
5 6 -447 0
-5 6 447 0
-8 -9 448 0
8 -9 -448 0
-8 9 -448 0
8 9 448 0
-12 -14 449 0
12 -14 -449 0
-12 14 -449 0
12 14 449 0
-16 18 450 0
16 18 -450 0
-16 -18 -450 0
16 -18 450 0
-19 -22 451 0
19 -22 -451 0
-19 22 -451 0
19 22 451 0
-24 27 452 0
24 27 -452 0
-24 -27 -452 0
24 -27 452 0
28 -29 453 0
-28 -29 -453 0
28 29 -453 0
-28 29 453 0
31 33 454 0
-31 33 -454 0
31 -33 -454 0
-31 -33 454 0
35 38 455 0
-35 38 -455 0
35 -38 -455 0
-35 -38 455 0
-40 41 456 0
40 41 -456 0
-40 -41 -456 0
40 -41 456 0
45 -46 457 0
-45 -46 -457 0
45 46 -457 0
-45 46 457 0
-47 -48 458 0
47 -48 -458 0
-47 48 -458 0
47 48 458 0
446 -447 459 0
-446 -447 -459 0
446 447 -459 0
-446 447 459 0
448 -449 460 0
-448 -449 -460 0
448 449 -460 0
-448 449 460 0
450 -451 461 0
-450 -451 -461 0
450 451 -461 0
-450 451 461 0
452 -453 462 0
-452 -453 -462 0
452 453 -462 0
-452 453 462 0
454 -455 463 0
-454 -455 -463 0
454 455 -463 0
-454 455 463 0
456 -457 464 0
-456 -457 -464 0
456 457 -464 0
-456 457 464 0
458 -459 465 0
-458 -459 -465 0
458 459 -465 0
-458 459 465 0
460 -461 466 0
-460 -461 -466 0
460 461 -466 0
-460 461 466 0
462 -463 467 0
-462 -463 -467 0
462 463 -467 0
-462 463 467 0
464 -465 468 0
-464 -465 -468 0
464 465 -468 0
-464 465 468 0
466 -467 469 0
-466 -467 -469 0
466 467 -469 0
-466 467 469 0
468 469 0
-468 -469 0
-2 5 470 0
2 5 -470 0
-2 -5 -470 0
2 -5 470 0
10 -13 471 0
-10 -13 -471 0
10 13 -471 0
-10 13 471 0
14 16 472 0
-14 16 -472 0
14 -16 -472 0
-14 -16 472 0
17 20 473 0
-17 20 -473 0
17 -20 -473 0
-17 -20 473 0
25 -27 474 0
-25 -27 -474 0
25 27 -474 0
-25 27 474 0
-30 31 475 0
30 31 -475 0
-30 -31 -475 0
30 -31 475 0
32 -33 476 0
-32 -33 -476 0
32 33 -476 0
-32 33 476 0
36 37 477 0
-36 37 -477 0
36 -37 -477 0
-36 -37 477 0
-38 -39 478 0
38 -39 -478 0
-38 39 -478 0
38 39 478 0
40 42 479 0
-40 42 -479 0
40 -42 -479 0
-40 -42 479 0
-43 -45 480 0
43 -45 -480 0
-43 45 -480 0
43 45 480 0
-46 -48 481 0
46 -48 -481 0
-46 48 -481 0
46 48 481 0
469 -470 482 0
-469 -470 -482 0
469 470 -482 0
-469 470 482 0
471 -472 483 0
-471 -472 -483 0
471 472 -483 0
-471 472 483 0
473 -474 484 0
-473 -474 -484 0
473 474 -484 0
-473 474 484 0
475 -476 485 0
-475 -476 -485 0
475 476 -485 0
-475 476 485 0
477 -478 486 0
-477 -478 -486 0
477 478 -486 0
-477 478 486 0
479 -480 487 0
-479 -480 -487 0
479 480 -487 0
-479 480 487 0
481 -482 488 0
-481 -482 -488 0
481 482 -488 0
-481 482 488 0
483 -484 489 0
-483 -484 -489 0
483 484 -489 0
-483 484 489 0
485 -486 490 0
-485 -486 -490 0
485 486 -490 0
-485 486 490 0
487 -488 491 0
-487 -488 -491 0
487 488 -491 0
-487 488 491 0
489 -490 492 0
-489 -490 -492 0
489 490 -492 0
-489 490 492 0
491 492 0
-491 -492 0
-1 3 493 0
1 3 -493 0
-1 -3 -493 0
1 -3 493 0
-5 12 494 0
5 12 -494 0
-5 -12 -494 0
5 -12 494 0
-13 18 495 0
13 18 -495 0
-13 -18 -495 0
13 -18 495 0
22 23 496 0
-22 23 -496 0
22 -23 -496 0
-22 -23 496 0
24 29 497 0
-24 29 -497 0
24 -29 -497 0
-24 -29 497 0
30 31 498 0
-30 31 -498 0
30 -31 -498 0
-30 -31 498 0
-32 -35 499 0
32 -35 -499 0
-32 35 -499 0
32 35 499 0
-39 41 500 0
39 41 -500 0
-39 -41 -500 0
39 -41 500 0
-42 -43 501 0
42 -43 -501 0
-42 43 -501 0
42 43 501 0
-46 -48 502 0
46 -48 -502 0
-46 48 -502 0
46 48 502 0
493 -494 503 0
-493 -494 -503 0
493 494 -503 0
-493 494 503 0
495 -496 504 0
-495 -496 -504 0
495 496 -504 0
-495 496 504 0
497 -498 505 0
-497 -498 -505 0
497 498 -505 0
-497 498 505 0
499 -500 506 0
-499 -500 -506 0
499 500 -506 0
-499 500 506 0
501 -502 507 0
-501 -502 -507 0
501 502 -507 0
-501 502 507 0
503 -504 508 0
-503 -504 -508 0
503 504 -508 0
-503 504 508 0
505 -506 509 0
-505 -506 -509 0
505 506 -509 0
-505 506 509 0
-507 -508 509 0
507 -508 -509 0
-507 508 -509 0
507 508 509 0
